(set-logic QF_NIA)
(set-info :source |
     Constraint systems stating that a matrix interpretation is
     compatible with a rewriting system (weakly compatible with
     all rules, strictly compatible with at least one).

     Contributed by Johannes Waldmann at HTKW Leipzig.
   |)
(set-info :smt-lib-version 2.0)
(set-info :category "crafted")
(set-info :status sat)
(declare-fun n0 () Int)
(assert (>= n0 0))
(declare-fun n1 () Int)
(assert (>= n1 0))
(declare-fun n2 () Int)
(assert (>= n2 0))
(declare-fun n3 () Int)
(assert (>= n3 0))
(declare-fun n4 () Int)
(assert (>= n4 0))
(declare-fun n5 () Int)
(assert (>= n5 0))
(declare-fun n6 () Int)
(assert (>= n6 0))
(declare-fun n7 () Int)
(assert (>= n7 0))
(declare-fun n8 () Int)
(assert (>= n8 0))
(declare-fun n9 () Int)
(assert (>= n9 0))
(declare-fun n10 () Int)
(assert (>= n10 0))
(declare-fun n11 () Int)
(assert (>= n11 0))
(declare-fun n12 () Int)
(assert (>= n12 0))
(declare-fun n13 () Int)
(assert (>= n13 0))
(declare-fun n14 () Int)
(assert (>= n14 0))
(declare-fun n15 () Int)
(assert (>= n15 0))
(declare-fun n16 () Int)
(assert (>= n16 0))
(declare-fun n17 () Int)
(assert (>= n17 0))
(declare-fun n18 () Int)
(assert (>= n18 0))
(declare-fun n19 () Int)
(assert (>= n19 0))
(declare-fun n20 () Int)
(assert (>= n20 0))
(declare-fun n21 () Int)
(assert (>= n21 0))
(declare-fun n22 () Int)
(assert (>= n22 0))
(declare-fun n23 () Int)
(assert (>= n23 0))
(declare-fun n24 () Int)
(assert (>= n24 0))
(declare-fun n25 () Int)
(assert (>= n25 0))
(declare-fun n26 () Int)
(assert (>= n26 0))
(declare-fun n27 () Int)
(assert (= n27 (* n23 n9)))
(declare-fun n28 () Int)
(assert (= n28 (* n24 n10)))
(declare-fun n29 () Int)
(assert (= n29 (* n25 n9)))
(declare-fun n30 () Int)
(assert (= n30 (* n26 n10)))
(declare-fun n31 () Int)
(assert (= n31 (+ n27 n28)))
(declare-fun n32 () Int)
(assert (= n32 (+ n29 n30)))
(declare-fun n33 () Int)
(assert (= n33 (+ n21 n31)))
(declare-fun n34 () Int)
(assert (= n34 (+ n22 n32)))
(declare-fun n35 () Int)
(assert (= n35 (* n23 n11)))
(declare-fun n36 () Int)
(assert (= n36 (* n24 n13)))
(declare-fun n37 () Int)
(assert (= n37 (* n23 n12)))
(declare-fun n38 () Int)
(assert (= n38 (* n24 n14)))
(declare-fun n39 () Int)
(assert (= n39 (* n25 n11)))
(declare-fun n40 () Int)
(assert (= n40 (* n26 n13)))
(declare-fun n41 () Int)
(assert (= n41 (* n25 n12)))
(declare-fun n42 () Int)
(assert (= n42 (* n26 n14)))
(declare-fun n43 () Int)
(assert (= n43 (+ n35 n36)))
(declare-fun n44 () Int)
(assert (= n44 (+ n37 n38)))
(declare-fun n45 () Int)
(assert (= n45 (+ n39 n40)))
(declare-fun n46 () Int)
(assert (= n46 (+ n41 n42)))
(declare-fun n47 () Int)
(assert (= n47 (* n23 n15)))
(declare-fun n48 () Int)
(assert (= n48 (* n24 n16)))
(declare-fun n49 () Int)
(assert (= n49 (* n25 n15)))
(declare-fun n50 () Int)
(assert (= n50 (* n26 n16)))
(declare-fun n51 () Int)
(assert (= n51 (+ n47 n48)))
(declare-fun n52 () Int)
(assert (= n52 (+ n49 n50)))
(declare-fun n53 () Int)
(assert (= n53 (+ n21 n51)))
(declare-fun n54 () Int)
(assert (= n54 (+ n22 n52)))
(declare-fun n55 () Int)
(assert (= n55 (* n23 n17)))
(declare-fun n56 () Int)
(assert (= n56 (* n24 n19)))
(declare-fun n57 () Int)
(assert (= n57 (* n23 n18)))
(declare-fun n58 () Int)
(assert (= n58 (* n24 n20)))
(declare-fun n59 () Int)
(assert (= n59 (* n25 n17)))
(declare-fun n60 () Int)
(assert (= n60 (* n26 n19)))
(declare-fun n61 () Int)
(assert (= n61 (* n25 n18)))
(declare-fun n62 () Int)
(assert (= n62 (* n26 n20)))
(declare-fun n63 () Int)
(assert (= n63 (+ n55 n56)))
(declare-fun n64 () Int)
(assert (= n64 (+ n57 n58)))
(declare-fun n65 () Int)
(assert (= n65 (+ n59 n60)))
(declare-fun n66 () Int)
(assert (= n66 (+ n61 n62)))
(declare-fun n67 () Int)
(assert (= n67 (* n4 n33)))
(declare-fun n68 () Int)
(assert (= n68 (* n5 n34)))
(declare-fun n69 () Int)
(assert (= n69 (+ n67 n68)))
(declare-fun n70 () Int)
(assert (= n70 (+ n3 n69)))
(declare-fun n71 () Int)
(assert (= n71 (* n4 n43)))
(declare-fun n72 () Int)
(assert (= n72 (* n5 n45)))
(declare-fun n73 () Int)
(assert (= n73 (* n4 n44)))
(declare-fun n74 () Int)
(assert (= n74 (* n5 n46)))
(declare-fun n75 () Int)
(assert (= n75 (+ n71 n72)))
(declare-fun n76 () Int)
(assert (= n76 (+ n73 n74)))
(declare-fun n77 () Int)
(assert (= n77 (* n11 n21)))
(declare-fun n78 () Int)
(assert (= n78 (* n12 n22)))
(declare-fun n79 () Int)
(assert (= n79 (* n13 n21)))
(declare-fun n80 () Int)
(assert (= n80 (* n14 n22)))
(declare-fun n81 () Int)
(assert (= n81 (+ n77 n78)))
(declare-fun n82 () Int)
(assert (= n82 (+ n79 n80)))
(declare-fun n83 () Int)
(assert (= n83 (+ n9 n81)))
(declare-fun n84 () Int)
(assert (= n84 (+ n10 n82)))
(declare-fun n85 () Int)
(assert (= n85 (* n11 n23)))
(declare-fun n86 () Int)
(assert (= n86 (* n12 n25)))
(declare-fun n87 () Int)
(assert (= n87 (* n11 n24)))
(declare-fun n88 () Int)
(assert (= n88 (* n12 n26)))
(declare-fun n89 () Int)
(assert (= n89 (* n13 n23)))
(declare-fun n90 () Int)
(assert (= n90 (* n14 n25)))
(declare-fun n91 () Int)
(assert (= n91 (* n13 n24)))
(declare-fun n92 () Int)
(assert (= n92 (* n14 n26)))
(declare-fun n93 () Int)
(assert (= n93 (+ n85 n86)))
(declare-fun n94 () Int)
(assert (= n94 (+ n87 n88)))
(declare-fun n95 () Int)
(assert (= n95 (+ n89 n90)))
(declare-fun n96 () Int)
(assert (= n96 (+ n91 n92)))
(declare-fun n97 () Int)
(assert (= n97 (* n17 n33)))
(declare-fun n98 () Int)
(assert (= n98 (* n18 n34)))
(declare-fun n99 () Int)
(assert (= n99 (* n19 n33)))
(declare-fun n100 () Int)
(assert (= n100 (* n20 n34)))
(declare-fun n101 () Int)
(assert (= n101 (+ n97 n98)))
(declare-fun n102 () Int)
(assert (= n102 (+ n99 n100)))
(declare-fun n103 () Int)
(assert (= n103 (+ n15 n101)))
(declare-fun n104 () Int)
(assert (= n104 (+ n16 n102)))
(declare-fun n105 () Int)
(assert (= n105 (* n17 n43)))
(declare-fun n106 () Int)
(assert (= n106 (* n18 n45)))
(declare-fun n107 () Int)
(assert (= n107 (* n17 n44)))
(declare-fun n108 () Int)
(assert (= n108 (* n18 n46)))
(declare-fun n109 () Int)
(assert (= n109 (* n19 n43)))
(declare-fun n110 () Int)
(assert (= n110 (* n20 n45)))
(declare-fun n111 () Int)
(assert (= n111 (* n19 n44)))
(declare-fun n112 () Int)
(assert (= n112 (* n20 n46)))
(declare-fun n113 () Int)
(assert (= n113 (+ n105 n106)))
(declare-fun n114 () Int)
(assert (= n114 (+ n107 n108)))
(declare-fun n115 () Int)
(assert (= n115 (+ n109 n110)))
(declare-fun n116 () Int)
(assert (= n116 (+ n111 n112)))
(declare-fun n117 () Int)
(assert (= n117 (* n7 n53)))
(declare-fun n118 () Int)
(assert (= n118 (* n8 n54)))
(declare-fun n119 () Int)
(assert (= n119 (+ n117 n118)))
(declare-fun n120 () Int)
(assert (= n120 (+ n6 n119)))
(declare-fun n121 () Int)
(assert (= n121 (* n7 n63)))
(declare-fun n122 () Int)
(assert (= n122 (* n8 n65)))
(declare-fun n123 () Int)
(assert (= n123 (* n7 n64)))
(declare-fun n124 () Int)
(assert (= n124 (* n8 n66)))
(declare-fun n125 () Int)
(assert (= n125 (+ n121 n122)))
(declare-fun n126 () Int)
(assert (= n126 (+ n123 n124)))
(declare-fun n127 () Int)
(assert (= n127 (* n23 n21)))
(declare-fun n128 () Int)
(assert (= n128 (* n24 n22)))
(declare-fun n129 () Int)
(assert (= n129 (* n25 n21)))
(declare-fun n130 () Int)
(assert (= n130 (* n26 n22)))
(declare-fun n131 () Int)
(assert (= n131 (+ n127 n128)))
(declare-fun n132 () Int)
(assert (= n132 (+ n129 n130)))
(declare-fun n133 () Int)
(assert (= n133 (+ n21 n131)))
(declare-fun n134 () Int)
(assert (= n134 (+ n22 n132)))
(declare-fun n135 () Int)
(assert (= n135 (* n23 n23)))
(declare-fun n136 () Int)
(assert (= n136 (* n24 n25)))
(declare-fun n137 () Int)
(assert (= n137 (* n23 n24)))
(declare-fun n138 () Int)
(assert (= n138 (* n24 n26)))
(declare-fun n139 () Int)
(assert (= n139 (* n25 n23)))
(declare-fun n140 () Int)
(assert (= n140 (* n26 n25)))
(declare-fun n141 () Int)
(assert (= n141 (* n25 n24)))
(declare-fun n142 () Int)
(assert (= n142 (* n26 n26)))
(declare-fun n143 () Int)
(assert (= n143 (+ n135 n136)))
(declare-fun n144 () Int)
(assert (= n144 (+ n137 n138)))
(declare-fun n145 () Int)
(assert (= n145 (+ n139 n140)))
(declare-fun n146 () Int)
(assert (= n146 (+ n141 n142)))
(declare-fun n147 () Int)
(assert (= n147 (* n63 n9)))
(declare-fun n148 () Int)
(assert (= n148 (* n64 n10)))
(declare-fun n149 () Int)
(assert (= n149 (* n65 n9)))
(declare-fun n150 () Int)
(assert (= n150 (* n66 n10)))
(declare-fun n151 () Int)
(assert (= n151 (+ n147 n148)))
(declare-fun n152 () Int)
(assert (= n152 (+ n149 n150)))
(declare-fun n153 () Int)
(assert (= n153 (+ n53 n151)))
(declare-fun n154 () Int)
(assert (= n154 (+ n54 n152)))
(declare-fun n155 () Int)
(assert (= n155 (* n63 n11)))
(declare-fun n156 () Int)
(assert (= n156 (* n64 n13)))
(declare-fun n157 () Int)
(assert (= n157 (* n63 n12)))
(declare-fun n158 () Int)
(assert (= n158 (* n64 n14)))
(declare-fun n159 () Int)
(assert (= n159 (* n65 n11)))
(declare-fun n160 () Int)
(assert (= n160 (* n66 n13)))
(declare-fun n161 () Int)
(assert (= n161 (* n65 n12)))
(declare-fun n162 () Int)
(assert (= n162 (* n66 n14)))
(declare-fun n163 () Int)
(assert (= n163 (+ n155 n156)))
(declare-fun n164 () Int)
(assert (= n164 (+ n157 n158)))
(declare-fun n165 () Int)
(assert (= n165 (+ n159 n160)))
(declare-fun n166 () Int)
(assert (= n166 (+ n161 n162)))
(declare-fun n167 () Int)
(assert (= n167 (* n4 n83)))
(declare-fun n168 () Int)
(assert (= n168 (* n5 n84)))
(declare-fun n169 () Int)
(assert (= n169 (+ n167 n168)))
(declare-fun n170 () Int)
(assert (= n170 (+ n3 n169)))
(declare-fun n171 () Int)
(assert (= n171 (* n4 n93)))
(declare-fun n172 () Int)
(assert (= n172 (* n5 n95)))
(declare-fun n173 () Int)
(assert (= n173 (* n4 n94)))
(declare-fun n174 () Int)
(assert (= n174 (* n5 n96)))
(declare-fun n175 () Int)
(assert (= n175 (+ n171 n172)))
(declare-fun n176 () Int)
(assert (= n176 (+ n173 n174)))
(declare-fun n177 () Int)
(assert (= n177 (* n7 n9)))
(declare-fun n178 () Int)
(assert (= n178 (* n8 n10)))
(declare-fun n179 () Int)
(assert (= n179 (+ n177 n178)))
(declare-fun n180 () Int)
(assert (= n180 (+ n6 n179)))
(declare-fun n181 () Int)
(assert (= n181 (* n7 n11)))
(declare-fun n182 () Int)
(assert (= n182 (* n8 n13)))
(declare-fun n183 () Int)
(assert (= n183 (* n7 n12)))
(declare-fun n184 () Int)
(assert (= n184 (* n8 n14)))
(declare-fun n185 () Int)
(assert (= n185 (+ n181 n182)))
(declare-fun n186 () Int)
(assert (= n186 (+ n183 n184)))
(declare-fun n187 () Int)
(assert (= n187 (* n1 n53)))
(declare-fun n188 () Int)
(assert (= n188 (* n2 n54)))
(declare-fun n189 () Int)
(assert (= n189 (+ n187 n188)))
(declare-fun n190 () Int)
(assert (= n190 (+ n0 n189)))
(declare-fun n191 () Int)
(assert (= n191 (* n1 n63)))
(declare-fun n192 () Int)
(assert (= n192 (* n2 n65)))
(declare-fun n193 () Int)
(assert (= n193 (* n1 n64)))
(declare-fun n194 () Int)
(assert (= n194 (* n2 n66)))
(declare-fun n195 () Int)
(assert (= n195 (+ n191 n192)))
(declare-fun n196 () Int)
(assert (= n196 (+ n193 n194)))
(assert (>= n120 n190))
(assert (>= n125 n195))
(assert (>= n126 n196))
(declare-fun n197 () Int)
(assert (= n197 (* n7 n15)))
(declare-fun n198 () Int)
(assert (= n198 (* n8 n16)))
(declare-fun n199 () Int)
(assert (= n199 (+ n197 n198)))
(declare-fun n200 () Int)
(assert (= n200 (+ n6 n199)))
(declare-fun n201 () Int)
(assert (= n201 (* n7 n17)))
(declare-fun n202 () Int)
(assert (= n202 (* n8 n19)))
(declare-fun n203 () Int)
(assert (= n203 (* n7 n18)))
(declare-fun n204 () Int)
(assert (= n204 (* n8 n20)))
(declare-fun n205 () Int)
(assert (= n205 (+ n201 n202)))
(declare-fun n206 () Int)
(assert (= n206 (+ n203 n204)))
(assert (>= n120 n200))
(assert (>= n125 n205))
(assert (>= n126 n206))
(assert (>= n120 n3))
(assert (>= n125 n4))
(assert (>= n126 n5))
(declare-fun n207 () Int)
(assert (= n207 (* n1 n153)))
(declare-fun n208 () Int)
(assert (= n208 (* n2 n154)))
(declare-fun n209 () Int)
(assert (= n209 (+ n207 n208)))
(declare-fun n210 () Int)
(assert (= n210 (+ n0 n209)))
(declare-fun n211 () Int)
(assert (= n211 (* n1 n163)))
(declare-fun n212 () Int)
(assert (= n212 (* n2 n165)))
(declare-fun n213 () Int)
(assert (= n213 (* n1 n164)))
(declare-fun n214 () Int)
(assert (= n214 (* n2 n166)))
(declare-fun n215 () Int)
(assert (= n215 (+ n211 n212)))
(declare-fun n216 () Int)
(assert (= n216 (+ n213 n214)))
(declare-fun n217 () Int)
(assert (= n217 (* n4 n133)))
(declare-fun n218 () Int)
(assert (= n218 (* n5 n134)))
(declare-fun n219 () Int)
(assert (= n219 (+ n217 n218)))
(declare-fun n220 () Int)
(assert (= n220 (+ n3 n219)))
(declare-fun n221 () Int)
(assert (= n221 (* n4 n143)))
(declare-fun n222 () Int)
(assert (= n222 (* n5 n145)))
(declare-fun n223 () Int)
(assert (= n223 (* n4 n144)))
(declare-fun n224 () Int)
(assert (= n224 (* n5 n146)))
(declare-fun n225 () Int)
(assert (= n225 (+ n221 n222)))
(declare-fun n226 () Int)
(assert (= n226 (+ n223 n224)))
(assert (>= n210 n220))
(assert (>= n215 n225))
(assert (>= n216 n226))
(declare-fun n227 () Int)
(assert (= n227 (* n1 n103)))
(declare-fun n228 () Int)
(assert (= n228 (* n2 n104)))
(declare-fun n229 () Int)
(assert (= n229 (+ n227 n228)))
(declare-fun n230 () Int)
(assert (= n230 (+ n0 n229)))
(declare-fun n231 () Int)
(assert (= n231 (* n1 n113)))
(declare-fun n232 () Int)
(assert (= n232 (* n2 n115)))
(declare-fun n233 () Int)
(assert (= n233 (* n1 n114)))
(declare-fun n234 () Int)
(assert (= n234 (* n2 n116)))
(declare-fun n235 () Int)
(assert (= n235 (+ n231 n232)))
(declare-fun n236 () Int)
(assert (= n236 (+ n233 n234)))
(assert (>= n170 n230))
(assert (>= n175 n235))
(assert (>= n176 n236))
(assert (>= n170 n70))
(assert (>= n175 n75))
(assert (>= n176 n76))
(declare-fun n237 () Int)
(assert (= n237 (* n185 n15)))
(declare-fun n238 () Int)
(assert (= n238 (* n186 n16)))
(declare-fun n239 () Int)
(assert (= n239 (+ n237 n238)))
(declare-fun n240 () Int)
(assert (= n240 (+ n180 n239)))
(declare-fun n241 () Int)
(assert (= n241 (* n185 n17)))
(declare-fun n242 () Int)
(assert (= n242 (* n186 n19)))
(declare-fun n243 () Int)
(assert (= n243 (* n185 n18)))
(declare-fun n244 () Int)
(assert (= n244 (* n186 n20)))
(declare-fun n245 () Int)
(assert (= n245 (+ n241 n242)))
(declare-fun n246 () Int)
(assert (= n246 (+ n243 n244)))
(assert (>= n70 n240))
(assert (>= n75 n245))
(assert (>= n76 n246))
(declare-fun n247 () Int)
(assert (= n247 (* n1 n15)))
(declare-fun n248 () Int)
(assert (= n248 (* n2 n16)))
(declare-fun n249 () Int)
(assert (= n249 (+ n247 n248)))
(declare-fun n250 () Int)
(assert (= n250 (+ n0 n249)))
(declare-fun n251 () Int)
(assert (= n251 (* n1 n17)))
(declare-fun n252 () Int)
(assert (= n252 (* n2 n19)))
(declare-fun n253 () Int)
(assert (= n253 (* n1 n18)))
(declare-fun n254 () Int)
(assert (= n254 (* n2 n20)))
(declare-fun n255 () Int)
(assert (= n255 (+ n251 n252)))
(declare-fun n256 () Int)
(assert (= n256 (+ n253 n254)))
(assert (>= n70 n250))
(assert (>= n75 n255))
(assert (>= n76 n256))
(assert (>= n70 n3))
(assert (>= n75 n4))
(assert (>= n76 n5))
(declare-fun n257 () Int)
(assert (= n257 (* n23 n53)))
(declare-fun n258 () Int)
(assert (= n258 (* n24 n54)))
(declare-fun n259 () Int)
(assert (= n259 (* n25 n53)))
(declare-fun n260 () Int)
(assert (= n260 (* n26 n54)))
(declare-fun n261 () Int)
(assert (= n261 (+ n257 n258)))
(declare-fun n262 () Int)
(assert (= n262 (+ n259 n260)))
(declare-fun n263 () Int)
(assert (= n263 (+ n21 n261)))
(declare-fun n264 () Int)
(assert (= n264 (+ n22 n262)))
(declare-fun n265 () Int)
(assert (= n265 (* n23 n63)))
(declare-fun n266 () Int)
(assert (= n266 (* n24 n65)))
(declare-fun n267 () Int)
(assert (= n267 (* n23 n64)))
(declare-fun n268 () Int)
(assert (= n268 (* n24 n66)))
(declare-fun n269 () Int)
(assert (= n269 (* n25 n63)))
(declare-fun n270 () Int)
(assert (= n270 (* n26 n65)))
(declare-fun n271 () Int)
(assert (= n271 (* n25 n64)))
(declare-fun n272 () Int)
(assert (= n272 (* n26 n66)))
(declare-fun n273 () Int)
(assert (= n273 (+ n265 n266)))
(declare-fun n274 () Int)
(assert (= n274 (+ n267 n268)))
(declare-fun n275 () Int)
(assert (= n275 (+ n269 n270)))
(declare-fun n276 () Int)
(assert (= n276 (+ n271 n272)))
(declare-fun n277 () Int)
(assert (= n277 (* n11 n53)))
(declare-fun n278 () Int)
(assert (= n278 (* n12 n54)))
(declare-fun n279 () Int)
(assert (= n279 (* n13 n53)))
(declare-fun n280 () Int)
(assert (= n280 (* n14 n54)))
(declare-fun n281 () Int)
(assert (= n281 (+ n277 n278)))
(declare-fun n282 () Int)
(assert (= n282 (+ n279 n280)))
(declare-fun n283 () Int)
(assert (= n283 (+ n9 n281)))
(declare-fun n284 () Int)
(assert (= n284 (+ n10 n282)))
(declare-fun n285 () Int)
(assert (= n285 (* n11 n63)))
(declare-fun n286 () Int)
(assert (= n286 (* n12 n65)))
(declare-fun n287 () Int)
(assert (= n287 (* n11 n64)))
(declare-fun n288 () Int)
(assert (= n288 (* n12 n66)))
(declare-fun n289 () Int)
(assert (= n289 (* n13 n63)))
(declare-fun n290 () Int)
(assert (= n290 (* n14 n65)))
(declare-fun n291 () Int)
(assert (= n291 (* n13 n64)))
(declare-fun n292 () Int)
(assert (= n292 (* n14 n66)))
(declare-fun n293 () Int)
(assert (= n293 (+ n285 n286)))
(declare-fun n294 () Int)
(assert (= n294 (+ n287 n288)))
(declare-fun n295 () Int)
(assert (= n295 (+ n289 n290)))
(declare-fun n296 () Int)
(assert (= n296 (+ n291 n292)))
(assert (>= n263 n283))
(assert (>= n264 n284))
(assert (>= n273 n293))
(assert (>= n274 n294))
(assert (>= n275 n295))
(assert (>= n276 n296))
(declare-fun n297 () Int)
(assert (= n297 (* n11 n153)))
(declare-fun n298 () Int)
(assert (= n298 (* n12 n154)))
(declare-fun n299 () Int)
(assert (= n299 (* n13 n153)))
(declare-fun n300 () Int)
(assert (= n300 (* n14 n154)))
(declare-fun n301 () Int)
(assert (= n301 (+ n297 n298)))
(declare-fun n302 () Int)
(assert (= n302 (+ n299 n300)))
(declare-fun n303 () Int)
(assert (= n303 (+ n9 n301)))
(declare-fun n304 () Int)
(assert (= n304 (+ n10 n302)))
(declare-fun n305 () Int)
(assert (= n305 (* n11 n163)))
(declare-fun n306 () Int)
(assert (= n306 (* n12 n165)))
(declare-fun n307 () Int)
(assert (= n307 (* n11 n164)))
(declare-fun n308 () Int)
(assert (= n308 (* n12 n166)))
(declare-fun n309 () Int)
(assert (= n309 (* n13 n163)))
(declare-fun n310 () Int)
(assert (= n310 (* n14 n165)))
(declare-fun n311 () Int)
(assert (= n311 (* n13 n164)))
(declare-fun n312 () Int)
(assert (= n312 (* n14 n166)))
(declare-fun n313 () Int)
(assert (= n313 (+ n305 n306)))
(declare-fun n314 () Int)
(assert (= n314 (+ n307 n308)))
(declare-fun n315 () Int)
(assert (= n315 (+ n309 n310)))
(declare-fun n316 () Int)
(assert (= n316 (+ n311 n312)))
(declare-fun n317 () Int)
(assert (= n317 (* n17 n133)))
(declare-fun n318 () Int)
(assert (= n318 (* n18 n134)))
(declare-fun n319 () Int)
(assert (= n319 (* n19 n133)))
(declare-fun n320 () Int)
(assert (= n320 (* n20 n134)))
(declare-fun n321 () Int)
(assert (= n321 (+ n317 n318)))
(declare-fun n322 () Int)
(assert (= n322 (+ n319 n320)))
(declare-fun n323 () Int)
(assert (= n323 (+ n15 n321)))
(declare-fun n324 () Int)
(assert (= n324 (+ n16 n322)))
(declare-fun n325 () Int)
(assert (= n325 (* n17 n143)))
(declare-fun n326 () Int)
(assert (= n326 (* n18 n145)))
(declare-fun n327 () Int)
(assert (= n327 (* n17 n144)))
(declare-fun n328 () Int)
(assert (= n328 (* n18 n146)))
(declare-fun n329 () Int)
(assert (= n329 (* n19 n143)))
(declare-fun n330 () Int)
(assert (= n330 (* n20 n145)))
(declare-fun n331 () Int)
(assert (= n331 (* n19 n144)))
(declare-fun n332 () Int)
(assert (= n332 (* n20 n146)))
(declare-fun n333 () Int)
(assert (= n333 (+ n325 n326)))
(declare-fun n334 () Int)
(assert (= n334 (+ n327 n328)))
(declare-fun n335 () Int)
(assert (= n335 (+ n329 n330)))
(declare-fun n336 () Int)
(assert (= n336 (+ n331 n332)))
(assert (>= n303 n323))
(assert (>= n304 n324))
(assert (>= n313 n333))
(assert (>= n314 n334))
(assert (>= n315 n335))
(assert (>= n316 n336))
(declare-fun n337 () Int)
(assert (= n337 (* n17 n83)))
(declare-fun n338 () Int)
(assert (= n338 (* n18 n84)))
(declare-fun n339 () Int)
(assert (= n339 (* n19 n83)))
(declare-fun n340 () Int)
(assert (= n340 (* n20 n84)))
(declare-fun n341 () Int)
(assert (= n341 (+ n337 n338)))
(declare-fun n342 () Int)
(assert (= n342 (+ n339 n340)))
(declare-fun n343 () Int)
(assert (= n343 (+ n15 n341)))
(declare-fun n344 () Int)
(assert (= n344 (+ n16 n342)))
(declare-fun n345 () Int)
(assert (= n345 (* n17 n93)))
(declare-fun n346 () Int)
(assert (= n346 (* n18 n95)))
(declare-fun n347 () Int)
(assert (= n347 (* n17 n94)))
(declare-fun n348 () Int)
(assert (= n348 (* n18 n96)))
(declare-fun n349 () Int)
(assert (= n349 (* n19 n93)))
(declare-fun n350 () Int)
(assert (= n350 (* n20 n95)))
(declare-fun n351 () Int)
(assert (= n351 (* n19 n94)))
(declare-fun n352 () Int)
(assert (= n352 (* n20 n96)))
(declare-fun n353 () Int)
(assert (= n353 (+ n345 n346)))
(declare-fun n354 () Int)
(assert (= n354 (+ n347 n348)))
(declare-fun n355 () Int)
(assert (= n355 (+ n349 n350)))
(declare-fun n356 () Int)
(assert (= n356 (+ n351 n352)))
(declare-fun n357 () Int)
(assert (= n357 (* n11 n103)))
(declare-fun n358 () Int)
(assert (= n358 (* n12 n104)))
(declare-fun n359 () Int)
(assert (= n359 (* n13 n103)))
(declare-fun n360 () Int)
(assert (= n360 (* n14 n104)))
(declare-fun n361 () Int)
(assert (= n361 (+ n357 n358)))
(declare-fun n362 () Int)
(assert (= n362 (+ n359 n360)))
(declare-fun n363 () Int)
(assert (= n363 (+ n9 n361)))
(declare-fun n364 () Int)
(assert (= n364 (+ n10 n362)))
(declare-fun n365 () Int)
(assert (= n365 (* n11 n113)))
(declare-fun n366 () Int)
(assert (= n366 (* n12 n115)))
(declare-fun n367 () Int)
(assert (= n367 (* n11 n114)))
(declare-fun n368 () Int)
(assert (= n368 (* n12 n116)))
(declare-fun n369 () Int)
(assert (= n369 (* n13 n113)))
(declare-fun n370 () Int)
(assert (= n370 (* n14 n115)))
(declare-fun n371 () Int)
(assert (= n371 (* n13 n114)))
(declare-fun n372 () Int)
(assert (= n372 (* n14 n116)))
(declare-fun n373 () Int)
(assert (= n373 (+ n365 n366)))
(declare-fun n374 () Int)
(assert (= n374 (+ n367 n368)))
(declare-fun n375 () Int)
(assert (= n375 (+ n369 n370)))
(declare-fun n376 () Int)
(assert (= n376 (+ n371 n372)))
(assert (>= n343 n363))
(assert (>= n344 n364))
(assert (>= n353 n373))
(assert (>= n354 n374))
(assert (>= n355 n375))
(assert (>= n356 n376))
(declare-fun n377 () Int)
(assert (= n377 (* n43 n15)))
(declare-fun n378 () Int)
(assert (= n378 (* n44 n16)))
(declare-fun n379 () Int)
(assert (= n379 (* n45 n15)))
(declare-fun n380 () Int)
(assert (= n380 (* n46 n16)))
(declare-fun n381 () Int)
(assert (= n381 (+ n377 n378)))
(declare-fun n382 () Int)
(assert (= n382 (+ n379 n380)))
(declare-fun n383 () Int)
(assert (= n383 (+ n33 n381)))
(declare-fun n384 () Int)
(assert (= n384 (+ n34 n382)))
(declare-fun n385 () Int)
(assert (= n385 (* n43 n17)))
(declare-fun n386 () Int)
(assert (= n386 (* n44 n19)))
(declare-fun n387 () Int)
(assert (= n387 (* n43 n18)))
(declare-fun n388 () Int)
(assert (= n388 (* n44 n20)))
(declare-fun n389 () Int)
(assert (= n389 (* n45 n17)))
(declare-fun n390 () Int)
(assert (= n390 (* n46 n19)))
(declare-fun n391 () Int)
(assert (= n391 (* n45 n18)))
(declare-fun n392 () Int)
(assert (= n392 (* n46 n20)))
(declare-fun n393 () Int)
(assert (= n393 (+ n385 n386)))
(declare-fun n394 () Int)
(assert (= n394 (+ n387 n388)))
(declare-fun n395 () Int)
(assert (= n395 (+ n389 n390)))
(declare-fun n396 () Int)
(assert (= n396 (+ n391 n392)))
(assert (>= n103 n383))
(assert (>= n104 n384))
(assert (>= n113 n393))
(assert (>= n114 n394))
(assert (>= n115 n395))
(assert (>= n116 n396))
(assert (or (> n120 n190) (> n120 n200) (> n120 n3) (> n210 n220) (> n170 n230) (> n170 n70) (> n70 n240) (> n70 n250) (> n70 n3)))
(check-sat)
(exit)
